
50
13946

6932 329
20734 984
20228 960
19364 919
16646 790
18458 876
21 1
13211 627
5225 248
15403 731
9123 433
11821 561
11441 543
12158 577
17447 828
20692 982
7290 346
17004 807
18753 890
8281 393
2612 124
10493 498
16119 765
11062 525
3898 185
14876 706
6848 325
18690 887
3561 169
12516 594
8133 386
20755 985
2928 139
18563 881
8807 418
7838 372
4403 209
10430 495
19596 930
21071 1000
19807 940
12895 612
4993 237
10704 508
13696 650
6237 296
20797 987
1791 85
4951 235
4298 204
